
  22    4
  10   10   10   10

   0   0   0   0   0   2 2 4 
   8  10  10  10  10   1 3 
  10  10  10  10  10   1 5 
   4  10  10  10  10   1 5 
   6  10  10  10  10   2 8 6 
   1  10  10  10  10   4 17 10 9 7 
   5  10  10  10  10   4 16 13 12 11 
   4  10  10  10  10   3 16 13 12 
  10  10  10  10  10   4 20 16 15 14 
   2  10  10  10  10   3 21 15 13 
   4  10  10  10  10   3 20 15 14 
   5  10  10  10  10   3 20 18 15 
   1  10  10  10  10   2 20 14 
   1  10  10  10  10   2 19 18 
  10  10  10  10  10   1 19 
  10  10  10  10  10   1 21 
   4  10  10  10  10   1 18 
   5  10  10  10  10   1 22
   9  10  10  10  10   1 22
  10  10  10  10  10   1 22
   7  10  10  10  10   1 22
   0   0   0   0   0   0 
